src/afterCut.mps
NAME
* Written by MOSEK version 7.0.0.55
OBJSENSE
    MIN
ROWS
 N  OBJ
 L  C1      
 L  C2      
 L  C3      
 L  C4      
 L  C5      
 L  C6      
 L  C7      
 L  C8      
 L  C9      
 L  C10     
COLUMNS
    X1        OBJ       1e+0
    X1        C1        -1e+0
    X1        C4        -1e+0
    X1        C5        -1e+0
    X1        C6        -1e+0
    X1        C7        -1e+0
    X1        C8        -1e+0
    X1        C9        -1e+0
    X2        OBJ       0
    X2        C2        -4.7e-4
    X2        C3        1e-2
    X2        C9        1.14630944e+3
    X3        OBJ       0
    X3        C2        -9e-5
    X3        C3        1e-2
    X4        OBJ       0
    X4        C2        1.4e-4
    X4        C3        1e-2
    X4        C6        -2.99788069e-1
    X5        OBJ       0
    X5        C2        -4.8e-4
    X5        C3        1e-2
    X6        OBJ       0
    X6        C2        1e-5
    X6        C3        1e-2
    X6        C5        8.77905793e-1
    X7        OBJ       0
    X7        C2        -2e-5
    X7        C3        1e-2
    X7        C8        7.86733918e-1
    X8        OBJ       0
    X8        C2        -7.3e-4
    X8        C3        1e-2
    X8        C7        5.80361666e+2
    X9        OBJ       0
    X9        C2        -2.1e-4
    X9        C3        1e-2
    X9        C4        -2.89583158e-1
    X10       OBJ       0
    X10       C2        -1.3e-4
    X10       C3        1e-2
    X11       OBJ       0
    X11       C2        -8.6e-4
    X11       C3        1e-2
RHS
    rhs       C2        -2e-2
    rhs       C3        1e+0
    rhs       C4        1.93055439e-1
    rhs       C5        6.79669001e+0
    rhs       C7        1.26211985e+4
    rhs       C8        5.24489279e-1
    rhs       C9        4.61371748e+4
RANGES
BOUNDS
 FR bound     X1      
 LI bound     X2        -2e+1
 UI bound     X2        1e+2
 LI bound     X3        -2e+1
 UI bound     X3        8e+1
 LI bound     X4        -2e+1
 UI bound     X4        1e+2
 LI bound     X5        -2e+1
 UI bound     X5        -1e+0
 LI bound     X6        -2e+1
 UI bound     X6        1e+2
 LI bound     X7        -2e+1
 UI bound     X7        1.5e+1
 LI bound     X8        -2e+1
 UI bound     X8        1e+0
 LI bound     X9        -2e+1
 UI bound     X9        4.3e+1
 LI bound     X10       -2e+1
 UI bound     X10       -2e+0
 LI bound     X11       -2e+1
 UI bound     X11       1e+2
QSECTION      C1      
    X2        X2        2.24302624e+1
    X3        X2        3.7976526e-1
    X6        X2        3.11950035e-1
    X4        X2        1.9612498e-1
    X11       X2        1.71622954e+1
    X10       X2        1.01331016e-1
    X5        X2        1.71649075e+1
    X7        X2        2.75058553e-1
    X8        X2        7.85188452e+0
    X9        X2        2.8298205e-1
    X3        X3        8.20125e-2
    X4        X3        2.1346578e-1
    X6        X3        3.772575e-2
    X5        X3        3.3932034e-1
    X11       X3        4.941729e-1
    X10       X3        1.28672145e-1
    X7        X3        1.82953485e-1
    X8        X3        1.924803e-1
    X9        X3        8.2134e-2
    X6        X4        8.8944075e-2
    X4        X4        4.28717762e+0
    X5        X4        4.32940226e-1
    X7        X4        3.68773994e+0
    X8        X4        4.63885444e-1
    X9        X4        3.34034415e-1
    X10       X4        2.74664574e+0
    X11       X4        -1.78646554e-1
    X6        X5        7.1856072e-1
    X5        X5        4.85782531e+1
    X7        X5        1.07943788e+0
    X8        X5        1.31167198e+1
    X9        X5        4.5809478e-1
    X10       X5        1.49123527e+0
    X11       X5        3.00676756e+1
    X7        X6        8.3160675e-2
    X10       X6        1.16417655e-1
    X11       X6        5.18881545e-1
    X6        X6        8.20125e-2
    X8        X6        2.9513646e-1
    X9        X6        5.3044875e-2
    X7        X7        3.74777442e+0
    X8        X7        3.46977821e-1
    X10       X7        2.56805092e+0
    X9        X7        2.42911305e-1
    X11       X7        6.68121761e-1
    X9        X8        9.370543e-1
    X8        X8        2.00775171e+1
    X10       X8        1.72565005e+0
    X11       X8        1.43042678e+1
    X9        X9        3.570125e-1
    X10       X9        5.75280225e-1
    X11       X9        4.63973445e-1
    X10       X10       4.57773282e+0
    X11       X10       7.38404129e-1
    X11       X11       7.44419616e+1
QSECTION      C4      
    X2        X2        2.24302624e+1
    X3        X2        3.7976526e-1
    X6        X2        3.11950035e-1
    X4        X2        1.9612498e-1
    X11       X2        1.71622954e+1
    X10       X2        1.01331016e-1
    X5        X2        1.71649075e+1
    X7        X2        2.75058553e-1
    X8        X2        7.85188452e+0
    X9        X2        2.8298205e-1
    X3        X3        8.20125e-2
    X4        X3        2.1346578e-1
    X6        X3        3.772575e-2
    X5        X3        3.3932034e-1
    X11       X3        4.941729e-1
    X10       X3        1.28672145e-1
    X7        X3        1.82953485e-1
    X8        X3        1.924803e-1
    X9        X3        8.2134e-2
    X6        X4        8.8944075e-2
    X4        X4        4.28717762e+0
    X5        X4        4.32940226e-1
    X7        X4        3.68773994e+0
    X8        X4        4.63885444e-1
    X9        X4        3.34034415e-1
    X10       X4        2.74664574e+0
    X11       X4        -1.78646554e-1
    X6        X5        7.1856072e-1
    X5        X5        4.85782531e+1
    X7        X5        1.07943788e+0
    X8        X5        1.31167198e+1
    X9        X5        4.5809478e-1
    X10       X5        1.49123527e+0
    X11       X5        3.00676756e+1
    X7        X6        8.3160675e-2
    X10       X6        1.16417655e-1
    X11       X6        5.18881545e-1
    X6        X6        8.20125e-2
    X8        X6        2.9513646e-1
    X9        X6        5.3044875e-2
    X7        X7        3.74777442e+0
    X8        X7        3.46977821e-1
    X10       X7        2.56805092e+0
    X9        X7        2.42911305e-1
    X11       X7        6.68121761e-1
    X9        X8        9.370543e-1
    X8        X8        2.00775171e+1
    X10       X8        1.72565005e+0
    X11       X8        1.43042678e+1
    X9        X9        1.63957061e-1
    X10       X9        5.75280225e-1
    X11       X9        4.63973445e-1
    X10       X10       4.57773282e+0
    X11       X10       7.38404129e-1
    X11       X11       7.44419616e+1
QSECTION      C5      
    X2        X2        2.24302624e+1
    X3        X2        3.7976526e-1
    X6        X2        3.11950035e-1
    X4        X2        1.9612498e-1
    X11       X2        1.71622954e+1
    X10       X2        1.01331016e-1
    X5        X2        1.71649075e+1
    X7        X2        2.75058553e-1
    X8        X2        7.85188452e+0
    X9        X2        2.8298205e-1
    X3        X3        8.20125e-2
    X4        X3        2.1346578e-1
    X6        X3        3.772575e-2
    X5        X3        3.3932034e-1
    X11       X3        4.941729e-1
    X10       X3        1.28672145e-1
    X7        X3        1.82953485e-1
    X8        X3        1.924803e-1
    X9        X3        8.2134e-2
    X6        X4        8.8944075e-2
    X4        X4        4.28717762e+0
    X5        X4        4.32940226e-1
    X7        X4        3.68773994e+0
    X8        X4        4.63885444e-1
    X9        X4        3.34034415e-1
    X10       X4        2.74664574e+0
    X11       X4        -1.78646554e-1
    X6        X5        7.1856072e-1
    X5        X5        4.85782531e+1
    X7        X5        1.07943788e+0
    X8        X5        1.31167198e+1
    X9        X5        4.5809478e-1
    X10       X5        1.49123527e+0
    X11       X5        3.00676756e+1
    X7        X6        8.3160675e-2
    X10       X6        1.16417655e-1
    X11       X6        5.18881545e-1
    X6        X6        2.53734166e-2
    X8        X6        2.9513646e-1
    X9        X6        5.3044875e-2
    X7        X7        3.74777442e+0
    X8        X7        3.46977821e-1
    X10       X7        2.56805092e+0
    X9        X7        2.42911305e-1
    X11       X7        6.68121761e-1
    X9        X8        9.370543e-1
    X8        X8        2.00775171e+1
    X10       X8        1.72565005e+0
    X11       X8        1.43042678e+1
    X9        X9        3.570125e-1
    X10       X9        5.75280225e-1
    X11       X9        4.63973445e-1
    X10       X10       4.57773282e+0
    X11       X10       7.38404129e-1
    X11       X11       7.44419616e+1
QSECTION      C6      
    X2        X2        2.24302624e+1
    X3        X2        3.7976526e-1
    X6        X2        3.11950035e-1
    X4        X2        1.9612498e-1
    X11       X2        1.71622954e+1
    X10       X2        1.01331016e-1
    X5        X2        1.71649075e+1
    X7        X2        2.75058553e-1
    X8        X2        7.85188452e+0
    X9        X2        2.8298205e-1
    X3        X3        8.20125e-2
    X4        X3        2.1346578e-1
    X6        X3        3.772575e-2
    X5        X3        3.3932034e-1
    X11       X3        4.941729e-1
    X10       X3        1.28672145e-1
    X7        X3        1.82953485e-1
    X8        X3        1.924803e-1
    X9        X3        8.2134e-2
    X6        X4        8.8944075e-2
    X4        X4        3.68760148e+0
    X5        X4        4.32940226e-1
    X7        X4        3.68773994e+0
    X8        X4        4.63885444e-1
    X9        X4        3.34034415e-1
    X10       X4        2.74664574e+0
    X11       X4        -1.78646554e-1
    X6        X5        7.1856072e-1
    X5        X5        4.85782531e+1
    X7        X5        1.07943788e+0
    X8        X5        1.31167198e+1
    X9        X5        4.5809478e-1
    X10       X5        1.49123527e+0
    X11       X5        3.00676756e+1
    X7        X6        8.3160675e-2
    X10       X6        1.16417655e-1
    X11       X6        5.18881545e-1
    X6        X6        8.20125e-2
    X8        X6        2.9513646e-1
    X9        X6        5.3044875e-2
    X7        X7        3.74777442e+0
    X8        X7        3.46977821e-1
    X10       X7        2.56805092e+0
    X9        X7        2.42911305e-1
    X11       X7        6.68121761e-1
    X9        X8        9.370543e-1
    X8        X8        2.00775171e+1
    X10       X8        1.72565005e+0
    X11       X8        1.43042678e+1
    X9        X9        3.570125e-1
    X10       X9        5.75280225e-1
    X11       X9        4.63973445e-1
    X10       X10       4.57773282e+0
    X11       X10       7.38404129e-1
    X11       X11       7.44419616e+1
QSECTION      C7      
    X2        X2        2.24302624e+1
    X3        X2        3.7976526e-1
    X6        X2        3.11950035e-1
    X4        X2        1.9612498e-1
    X11       X2        1.71622954e+1
    X10       X2        1.01331016e-1
    X5        X2        1.71649075e+1
    X7        X2        2.75058553e-1
    X8        X2        7.85188452e+0
    X9        X2        2.8298205e-1
    X3        X3        8.20125e-2
    X4        X3        2.1346578e-1
    X6        X3        3.772575e-2
    X5        X3        3.3932034e-1
    X11       X3        4.941729e-1
    X10       X3        1.28672145e-1
    X7        X3        1.82953485e-1
    X8        X3        1.924803e-1
    X9        X3        8.2134e-2
    X6        X4        8.8944075e-2
    X4        X4        4.28717762e+0
    X5        X4        4.32940226e-1
    X7        X4        3.68773994e+0
    X8        X4        4.63885444e-1
    X9        X4        3.34034415e-1
    X10       X4        2.74664574e+0
    X11       X4        -1.78646554e-1
    X6        X5        7.1856072e-1
    X5        X5        4.85782531e+1
    X7        X5        1.07943788e+0
    X8        X5        1.31167198e+1
    X9        X5        4.5809478e-1
    X10       X5        1.49123527e+0
    X11       X5        3.00676756e+1
    X7        X6        8.3160675e-2
    X10       X6        1.16417655e-1
    X11       X6        5.18881545e-1
    X6        X6        8.20125e-2
    X8        X6        2.9513646e-1
    X9        X6        5.3044875e-2
    X7        X7        3.74777442e+0
    X8        X7        3.46977821e-1
    X10       X7        2.56805092e+0
    X9        X7        2.42911305e-1
    X11       X7        6.68121761e-1
    X9        X8        9.370543e-1
    X8        X8        6.73586963e+0
    X10       X8        1.72565005e+0
    X11       X8        1.43042678e+1
    X9        X9        3.570125e-1
    X10       X9        5.75280225e-1
    X11       X9        4.63973445e-1
    X10       X10       4.57773282e+0
    X11       X10       7.38404129e-1
    X11       X11       7.44419616e+1
QSECTION      C8      
    X2        X2        2.24302624e+1
    X3        X2        3.7976526e-1
    X6        X2        3.11950035e-1
    X4        X2        1.9612498e-1
    X11       X2        1.71622954e+1
    X10       X2        1.01331016e-1
    X5        X2        1.71649075e+1
    X7        X2        2.75058553e-1
    X8        X2        7.85188452e+0
    X9        X2        2.8298205e-1
    X3        X3        8.20125e-2
    X4        X3        2.1346578e-1
    X6        X3        3.772575e-2
    X5        X3        3.3932034e-1
    X11       X3        4.941729e-1
    X10       X3        1.28672145e-1
    X7        X3        1.82953485e-1
    X8        X3        1.924803e-1
    X9        X3        8.2134e-2
    X6        X4        8.8944075e-2
    X4        X4        4.28717762e+0
    X5        X4        4.32940226e-1
    X7        X4        3.68773994e+0
    X8        X4        4.63885444e-1
    X9        X4        3.34034415e-1
    X10       X4        2.74664574e+0
    X11       X4        -1.78646554e-1
    X6        X5        7.1856072e-1
    X5        X5        4.85782531e+1
    X7        X5        1.07943788e+0
    X8        X5        1.31167198e+1
    X9        X5        4.5809478e-1
    X10       X5        1.49123527e+0
    X11       X5        3.00676756e+1
    X7        X6        8.3160675e-2
    X10       X6        1.16417655e-1
    X11       X6        5.18881545e-1
    X6        X6        8.20125e-2
    X8        X6        2.9513646e-1
    X9        X6        5.3044875e-2
    X7        X7        3.22328514e+0
    X8        X7        3.46977821e-1
    X10       X7        2.56805092e+0
    X9        X7        2.42911305e-1
    X11       X7        6.68121761e-1
    X9        X8        9.370543e-1
    X8        X8        2.00775171e+1
    X10       X8        1.72565005e+0
    X11       X8        1.43042678e+1
    X9        X9        3.570125e-1
    X10       X9        5.75280225e-1
    X11       X9        4.63973445e-1
    X10       X10       4.57773282e+0
    X11       X10       7.38404129e-1
    X11       X11       7.44419616e+1
QSECTION      C9      
    X2        X2        8.19039365e+0
    X3        X2        3.7976526e-1
    X6        X2        3.11950035e-1
    X4        X2        1.9612498e-1
    X11       X2        1.71622954e+1
    X10       X2        1.01331016e-1
    X5        X2        1.71649075e+1
    X7        X2        2.75058553e-1
    X8        X2        7.85188452e+0
    X9        X2        2.8298205e-1
    X3        X3        8.20125e-2
    X4        X3        2.1346578e-1
    X6        X3        3.772575e-2
    X5        X3        3.3932034e-1
    X11       X3        4.941729e-1
    X10       X3        1.28672145e-1
    X7        X3        1.82953485e-1
    X8        X3        1.924803e-1
    X9        X3        8.2134e-2
    X6        X4        8.8944075e-2
    X4        X4        4.28717762e+0
    X5        X4        4.32940226e-1
    X7        X4        3.68773994e+0
    X8        X4        4.63885444e-1
    X9        X4        3.34034415e-1
    X10       X4        2.74664574e+0
    X11       X4        -1.78646554e-1
    X6        X5        7.1856072e-1
    X5        X5        4.85782531e+1
    X7        X5        1.07943788e+0
    X8        X5        1.31167198e+1
    X9        X5        4.5809478e-1
    X10       X5        1.49123527e+0
    X11       X5        3.00676756e+1
    X7        X6        8.3160675e-2
    X10       X6        1.16417655e-1
    X11       X6        5.18881545e-1
    X6        X6        8.20125e-2
    X8        X6        2.9513646e-1
    X9        X6        5.3044875e-2
    X7        X7        3.74777442e+0
    X8        X7        3.46977821e-1
    X10       X7        2.56805092e+0
    X9        X7        2.42911305e-1
    X11       X7        6.68121761e-1
    X9        X8        9.370543e-1
    X8        X8        2.00775171e+1
    X10       X8        1.72565005e+0
    X11       X8        1.43042678e+1
    X9        X9        3.570125e-1
    X10       X9        5.75280225e-1
    X11       X9        4.63973445e-1
    X10       X10       4.57773282e+0
    X11       X10       7.38404129e-1
    X11       X11       7.44419616e+1
QSECTION      C10     
    X1        X1        -2e+0
    X2        X2        2.24302624e+1
    X3        X2        3.7976526e-1
    X6        X2        3.11950035e-1
    X4        X2        1.9612498e-1
    X11       X2        1.71622954e+1
    X10       X2        1.01331016e-1
    X5        X2        1.71649075e+1
    X7        X2        2.75058553e-1
    X8        X2        7.85188452e+0
    X9        X2        2.8298205e-1
    X3        X3        8.20125e-2
    X4        X3        2.1346578e-1
    X6        X3        3.772575e-2
    X5        X3        3.3932034e-1
    X11       X3        4.941729e-1
    X10       X3        1.28672145e-1
    X7        X3        1.82953485e-1
    X8        X3        1.924803e-1
    X9        X3        8.2134e-2
    X6        X4        8.8944075e-2
    X4        X4        4.28717762e+0
    X5        X4        4.32940226e-1
    X7        X4        3.68773994e+0
    X8        X4        4.63885444e-1
    X9        X4        3.34034415e-1
    X10       X4        2.74664574e+0
    X11       X4        -1.78646554e-1
    X6        X5        7.1856072e-1
    X5        X5        4.85782531e+1
    X7        X5        1.07943788e+0
    X8        X5        1.31167198e+1
    X9        X5        4.5809478e-1
    X10       X5        1.49123527e+0
    X11       X5        3.00676756e+1
    X7        X6        8.3160675e-2
    X10       X6        1.16417655e-1
    X11       X6        5.18881545e-1
    X6        X6        8.20125e-2
    X8        X6        2.9513646e-1
    X9        X6        5.3044875e-2
    X7        X7        3.74777442e+0
    X8        X7        3.46977821e-1
    X10       X7        2.56805092e+0
    X9        X7        2.42911305e-1
    X11       X7        6.68121761e-1
    X9        X8        9.370543e-1
    X8        X8        2.00775171e+1
    X10       X8        1.72565005e+0
    X11       X8        1.43042678e+1
    X9        X9        3.570125e-1
    X10       X9        5.75280225e-1
    X11       X9        4.63973445e-1
    X10       X10       4.57773282e+0
    X11       X10       7.38404129e-1
    X11       X11       7.44419616e+1
ENDATA
